Geographic Exponential Decay
20 112 208 6 305 301 317 260 289 50 155 248 3 89 33 49 1 176 282 124 134
p edge 320 319
e 0 311 2.0
e 1 255 43.0
e 1 124 51.0
e 1 67 3.0
e 1 271 72.0
e 1 307 16.0
e 1 0 58.0
e 2 265 1.0
e 2 1 15.0
e 3 169 7.0
e 3 86 89.0
e 3 161 1.0
e 3 124 33.0
e 3 247 94.0
e 4 227 2.0
e 4 2 1.0
e 5 47 11.0
e 5 4 7.0
e 6 191 71.0
e 6 185 37.0
e 6 246 56.0
e 6 133 99.0
e 6 264 46.0
e 6 5 65.0
e 7 54 6.0
e 7 6 57.0
e 8 310 22.0
e 8 7 6.0
e 9 105 1.0
e 9 8 2.0
e 10 17 2.0
e 10 9 3.0
e 11 151 1.0
e 11 10 1.0
e 12 131 2.0
e 12 11 6.0
e 13 212 1.0
e 13 12 2.0
e 14 211 16.0
e 14 112 52.0
e 14 13 17.0
e 15 121 1.0
e 15 14 1.0
e 16 187 1.0
e 16 15 1.0
e 18 110 12.0
e 18 16 1.0
e 19 55 8.0
e 19 18 4.0
e 20 310 22.0
e 21 210 11.0
e 21 103 17.0
e 21 19 14.0
e 22 45 1.0
e 22 21 12.0
e 23 158 1.0
e 23 22 2.0
e 24 143 4.0
e 24 205 23.0
e 24 23 7.0
e 25 306 1.0
e 25 24 22.0
e 26 217 1.0
e 26 25 2.0
e 27 267 1.0
e 27 26 2.0
e 28 215 1.0
e 28 27 5.0
e 29 165 1.0
e 29 28 1.0
e 30 218 1.0
e 30 29 1.0
e 31 167 2.0
e 31 30 2.0
e 32 145 2.0
e 32 31 6.0
e 33 61 33.0
e 33 76 29.0
e 33 206 74.0
e 33 48 12.0
e 33 130 79.0
e 33 32 79.0
e 34 204 12.0
e 34 50 20.0
e 34 33 5.0
e 35 82 2.0
e 35 34 19.0
e 36 70 1.0
e 36 35 1.0
e 37 260 41.0
e 37 36 3.0
e 38 199 9.0
e 38 37 11.0
e 39 317 76.0
e 39 38 6.0
e 40 248 88.0
e 40 39 11.0
e 41 117 1.0
e 41 40 2.0
e 42 132 1.0
e 42 41 1.0
e 43 139 3.0
e 43 42 3.0
e 44 146 1.0
e 44 43 1.0
e 46 90 11.0
e 46 44 10.0
e 49 96 37.0
e 49 256 68.0
e 49 118 25.0
e 49 162 63.0
e 49 65 23.0
e 49 46 4.0
e 50 175 3.0
e 50 104 76.0
e 50 51 64.0
e 50 270 18.0
e 52 134 69.0
e 52 49 36.0
e 53 317 95.0
e 56 57 5.0
e 56 52 5.0
e 58 279 1.0
e 58 59 18.0
e 58 56 6.0
e 60 75 1.0
e 60 58 20.0
e 62 63 3.0
e 62 60 2.0
e 64 181 9.0
e 64 62 7.0
e 66 97 1.0
e 66 64 7.0
e 68 69 1.0
e 68 66 2.0
e 71 188 4.0
e 71 68 1.0
e 72 73 5.0
e 72 242 21.0
e 72 71 7.0
e 74 219 4.0
e 74 72 4.0
e 76 228 38.0
e 76 77 22.0
e 78 99 2.0
e 78 74 1.0
e 79 134 85.0
e 80 231 2.0
e 80 78 1.0
e 81 100 1.0
e 81 80 1.0
e 83 301 24.0
e 84 220 4.0
e 84 282 36.0
e 84 81 9.0
e 85 254 43.0
e 85 84 9.0
e 87 316 4.0
e 87 85 1.0
e 88 287 5.0
e 88 87 1.0
e 89 266 12.0
e 89 189 89.0
e 89 186 62.0
e 89 300 46.0
e 89 98 91.0
e 91 163 5.0
e 91 88 1.0
e 92 93 3.0
e 92 91 3.0
e 94 95 8.0
e 94 92 11.0
e 101 260 88.0
e 102 106 4.0
e 102 94 6.0
e 107 164 22.0
e 107 102 3.0
e 108 248 96.0
e 108 221 16.0
e 109 222 1.0
e 109 107 6.0
e 111 226 2.0
e 111 109 4.0
e 112 262 27.0
e 112 113 97.0
e 112 114 5.0
e 112 301 14.0
e 115 229 2.0
e 115 111 1.0
e 116 119 6.0
e 116 115 3.0
e 120 122 2.0
e 120 116 3.0
e 123 232 1.0
e 123 120 4.0
e 124 125 59.0
e 124 189 16.0
e 124 190 79.0
e 126 152 1.0
e 126 123 2.0
e 127 178 1.0
e 127 126 2.0
e 128 140 3.0
e 128 127 1.0
e 129 192 1.0
e 129 128 2.0
e 134 135 55.0
e 134 136 23.0
e 134 214 100.0
e 137 138 7.0
e 137 129 2.0
e 141 248 67.0
e 142 183 5.0
e 142 137 12.0
e 143 150 22.0
e 144 147 6.0
e 144 142 3.0
e 148 184 2.0
e 148 144 1.0
e 149 250 2.0
e 149 148 2.0
e 152 313 15.0
e 153 301 54.0
e 154 155 48.0
e 154 149 3.0
e 155 239 1.0
e 155 156 24.0
e 155 157 24.0
e 155 233 75.0
e 159 160 5.0
e 159 154 2.0
e 164 166 21.0
e 168 207 4.0
e 168 159 1.0
e 169 170 9.0
e 171 192 4.0
e 172 299 1.0
e 172 168 10.0
e 173 174 1.0
e 173 172 1.0
e 176 177 43.0
e 176 223 33.0
e 176 234 67.0
e 176 179 23.0
e 176 281 97.0
e 176 173 27.0
e 177 288 23.0
e 180 193 1.0
e 180 176 50.0
e 182 194 1.0
e 182 180 1.0
e 195 196 1.0
e 195 182 2.0
e 197 301 25.0
e 197 302 15.0
e 198 200 4.0
e 198 195 1.0
e 201 202 1.0
e 201 198 1.0
e 203 204 6.0
e 208 209 11.0
e 208 213 88.0
e 208 275 25.0
e 208 216 84.0
e 208 224 27.0
e 209 289 15.0
e 225 230 6.0
e 225 201 3.0
e 235 308 1.0
e 235 225 1.0
e 236 282 60.0
e 237 238 19.0
e 237 240 2.0
e 237 235 1.0
e 241 243 3.0
e 241 237 23.0
e 244 301 1.0
e 245 260 82.0
e 248 249 1.0
e 248 251 53.0
e 252 253 3.0
e 252 241 2.0
e 254 257 38.0
e 254 258 30.0
e 259 268 1.0
e 259 260 39.0
e 260 289 92.0
e 261 263 2.0
e 261 252 1.0
e 269 272 8.0
e 269 261 1.0
e 272 273 17.0
e 274 276 1.0
e 274 269 5.0
e 277 278 5.0
e 277 274 3.0
e 280 282 57.0
e 282 283 71.0
e 282 284 30.0
e 285 286 4.0
e 285 277 3.0
e 289 292 40.0
e 289 290 37.0
e 289 291 98.0
e 293 294 8.0
e 293 285 9.0
e 295 296 2.0
e 295 293 1.0
e 297 298 3.0
e 297 295 3.0
e 303 304 24.0
e 304 305 100.0
e 305 317 83.0
e 305 309 53.0
e 305 312 19.0
e 305 314 6.0
e 315 317 48.0
e 317 318 24.0
e 319 297 1.0
